peakDumbCharging = 25900; 
Machine = anon_enum(16); 
machineSpeed = [3700,3700,3700,3700,3700,3700,3700,3700,3700,3700,3700,3700,3700,3700,3700,3700]; 
machineLoad = [3700,3700,3700,3700,3700,3700,3700,3700,3700,3700,3700,3700,3700,3700,3700,3700]; 
Car = anon_enum(26); 
demandCar = [18320,2080,11040,23560,7240,2240,5160,17960,6520,3400,2480,1360,9760,9080,8520,3520,8920,33320,15640,17040,920,5400,10840,24160,34040,6040]; 
arrivalCar = [73,66,66,65,64,63,63,62,62,60,60,60,59,59,57,56,55,52,51,50,48,42,39,39,31,29]; 
departureCar = [80,68,73,76,68,66,66,70,66,63,62,63,63,63,61,58,59,65,56,56,49,45,44,48,51,32]; 
